Traveling Salesman Problem/TSP_generados/Aleatorio1621103306_9.tsp
NAME: Aleatorio1621103306_9.tsp
COMMENT: Randomly generated scenario
TYPE: TSP
DIMENSION: 9
EDGE_WEIGHT_TYPE: ATT
NODE_COORD_SECTION
1 46.23 47.66
2 48.3 21.77
3 19.11 33.17
4 45.99 26.97
5 9.41 31.67
6 41.66 13.01
7 10.11 10.7
8 37.48 38.19
9 47.2 45.69
