Traveling Salesman Problem/TSP_generados/Aleatorio1621103306_9.opt.tour
NAME: Aleatorio1621103306_9.opt.tour
COMMENT: Optimal solution for Aleatorio1621103306_9 (132.00559813001675)
TYPE: TOUR
DIMENSION: 9
TOUR_SECTION
1 9 4 2 6 7 5 3 8
-1
EOF
